NAME: rd100
DIMENSION: 18
EDGE_WEIGHT_TYPE: EUC_2D
NODE_COORD_SECTION
1 144 863
2 882 1
3 545 735
4 503 876
5 205 345
6 702 577
7 147 164
8 135 808
9 629 977
10 675 731
11 314 299
12 446 982
13 355 765
14 398 976
15 273 854
16 666 312
17 877 925
18 134 950
ACCEPTED_PROBABILITIES
0.0
0.05
0.65
0.7
0.56
0.47
0.42
0.95
0.58
0.54
0.51
0.73
0.81
0.77
0.89
0.36
0.38
0.93
OUTSOURCING_COSTS
0.0
66.71
24.76
21.12
30.65
36.88
41.06
3.24
29.35
32.18
34.65
19.12
13.65
16.35
7.65
44.65
43.29
5.18
